c turning on binary mode checking
c parsing input formula with 259840 variables and 1039924 clauses
c finished parsing, read 2981771 bytes from proof file
c detected empty clause; start verification via backward checking
c 7126 of 1039924 clauses in core                            
c 2316 of 118761 lemmas in core using 69229 resolution steps
c 0 RAT lemmas in core; 388 redundant literals in core lemmas
s VERIFIED
c verification time: 1.405 seconds
